17	4
21	28	17	12	
0	0	0	0	0	3	2	3	4	
7	3	10	7	0	3	11	15	17	
2	4	0	0	0	3	8	10	12	
4	0	0	0	4	3	5	6	7	
7	4	8	0	0	1	10	
225	0	8	1	3	3	17	17	17	
150	2	0	7	7	3	9	17	17	
75	0	9	2	2	3	17	17	17	
125	4	9	0	0	1	13	
225	0	0	10	1	2	17	17	
225	8	7	0	0	2	12	13	
150	0	9	7	0	2	14	16	
1	0	0	1	0	1	17	
1	0	0	0	1	3	17	17	17	
4	0	2	3	4	3	17	17	17	
3	4	0	0	0	1	17	
0	0	0	0	0	0	
